presolving:
(round 1, fast)       101 del vars, 0 del conss, 0 add conss, 0 chg bounds, 0 chg sides, 0 chg coeffs, 0 upgd conss, 0 impls, 200 clqs
(round 2, exhaustive) 101 del vars, 0 del conss, 0 add conss, 0 chg bounds, 0 chg sides, 0 chg coeffs, 200 upgd conss, 0 impls, 200 clqs
   (0.0s) probing: 51/9900 (0.5%) - 0 fixings, 0 aggregations, 0 implications, 0 bound changes
   (0.0s) probing aborted: 50/50 successive totally useless probings
   Deactivated symmetry handling methods, since SCIP was built without symmetry detector (SYM=none).
presolving (3 rounds: 3 fast, 2 medium, 2 exhaustive):
 101 deleted vars, 0 deleted constraints, 0 added constraints, 0 tightened bounds, 0 added holes, 0 changed sides, 0 changed coefficients
 0 implications, 200 cliques
presolved problem has 9999 variables (9900 bin, 0 int, 0 impl, 99 cont) and 9902 constraints
    200 constraints of type <setppc>
   9702 constraints of type <linear>
Presolving Time: 0.00

 time | node  | left  |LP iter|LP it/n|mem/heur|mdpt |vars |cons |rows |cuts |sepa|confs|strbr|  dualbound   | primalbound  |  gap   | compl. 
p 1.0s|     1 |     0 |    71 |     - | vbounds|   0 |9999 |9909 |9902 |   0 |  0 |   6 |   0 | 0.000000e+00 | 1.839882e+05 |    Inf | unknown
  1.0s|     1 |     0 |   365 |     - |   126M |   0 |9999 |9909 |9902 |   0 |  0 |   6 |   0 | 1.678804e+04 | 1.839882e+05 | 995.95%| unknown
  1.0s|     1 |     0 |   486 |     - |   129M |   0 |9999 |9909 |9974 |  72 |  1 |   6 |   0 | 1.855766e+04 | 1.839882e+05 | 891.44%| unknown
  1.0s|     1 |     0 |   545 |     - |   131M |   0 |9999 |9909 |  10k| 115 |  2 |   6 |   0 | 1.901268e+04 | 1.839882e+05 | 867.71%| unknown
  1.0s|     1 |     0 |   579 |     - |   133M |   0 |9999 |9909 |  10k| 127 |  3 |   6 |   0 | 1.926751e+04 | 1.839882e+05 | 854.91%| unknown
  2.0s|     1 |     0 |   629 |     - |   135M |   0 |9999 |9909 |  10k| 154 |  4 |   6 |   0 | 1.939784e+04 | 1.839882e+05 | 848.50%| unknown
  2.0s|     1 |     0 |   651 |     - |   137M |   0 |9999 |9909 |  10k| 169 |  5 |   6 |   0 | 1.940276e+04 | 1.839882e+05 | 848.26%| unknown
  2.0s|     1 |     0 |   659 |     - |   139M |   0 |9999 |9909 |  10k| 175 |  6 |   6 |   0 | 1.940276e+04 | 1.839882e+05 | 848.26%| unknown
  2.0s|     1 |     0 |   667 |     - |   140M |   0 |9999 |9909 |  10k| 180 |  7 |   6 |   0 | 1.940276e+04 | 1.839882e+05 | 848.26%| unknown
  2.0s|     1 |     0 |   696 |     - |   141M |   0 |9999 |9909 |  10k| 189 |  8 |   6 |   0 | 1.941566e+04 | 1.839882e+05 | 847.63%| unknown
  3.0s|     1 |     0 |   735 |     - |   142M |   0 |9999 |9909 |  10k| 200 |  9 |   6 |   0 | 1.959851e+04 | 1.839882e+05 | 838.79%| unknown
  3.0s|     1 |     0 |   768 |     - |   144M |   0 |9999 |9909 |  10k| 215 | 10 |   6 |   0 | 1.963602e+04 | 1.839882e+05 | 836.99%| unknown
  3.0s|     1 |     0 |   784 |     - |   145M |   0 |9999 |9909 |  10k| 227 | 11 |   6 |   0 | 1.963602e+04 | 1.839882e+05 | 836.99%| unknown
  3.0s|     1 |     0 |   798 |     - |   146M |   0 |9999 |9909 |  10k| 236 | 12 |   6 |   0 | 1.963602e+04 | 1.839882e+05 | 836.99%| unknown
  3.0s|     1 |     0 |   833 |     - |   147M |   0 |9999 |9909 |  10k| 242 | 13 |   6 |   0 | 1.963882e+04 | 1.839882e+05 | 836.86%| unknown
 time | node  | left  |LP iter|LP it/n|mem/heur|mdpt |vars |cons |rows |cuts |sepa|confs|strbr|  dualbound   | primalbound  |  gap   | compl. 
  4.0s|     1 |     0 |   840 |     - |   149M |   0 |9999 |9909 |  10k| 249 | 14 |   6 |   0 | 1.963882e+04 | 1.839882e+05 | 836.86%| unknown
  4.0s|     1 |     0 |   861 |     - |   150M |   0 |9999 |9909 |  10k| 250 | 15 |   6 |   0 | 1.964102e+04 | 1.839882e+05 | 836.76%| unknown
  4.0s|     1 |     0 |   865 |     - |   151M |   0 |9999 |9909 |  10k| 254 | 16 |   6 |   0 | 1.964102e+04 | 1.839882e+05 | 836.76%| unknown
  4.0s|     1 |     0 |   879 |     - |   152M |   0 |9999 |9909 |  10k| 261 | 17 |   6 |   0 | 1.964482e+04 | 1.839882e+05 | 836.57%| unknown
  5.0s|     1 |     0 |   896 |     - |   153M |   0 |9999 |9909 |  10k| 267 | 18 |   6 |   0 | 1.964783e+04 | 1.839882e+05 | 836.43%| unknown
  5.0s|     1 |     0 |   899 |     - |   154M |   0 |9999 |9909 |  10k| 270 | 19 |   6 |   0 | 1.964783e+04 | 1.839882e+05 | 836.43%| unknown
  5.0s|     1 |     0 |   903 |     - |   155M |   0 |9999 |9909 |  10k| 272 | 20 |   6 |   0 | 1.964804e+04 | 1.839882e+05 | 836.42%| unknown
  5.0s|     1 |     0 |   917 |     - |   155M |   0 |9999 |9909 |  10k| 279 | 21 |   6 |   0 | 1.965256e+04 | 1.839882e+05 | 836.20%| unknown
  5.0s|     1 |     0 |   920 |     - |   155M |   0 |9999 |9909 |  10k| 281 | 22 |   6 |   0 | 1.965256e+04 | 1.839882e+05 | 836.20%| unknown
  6.0s|     1 |     0 |   922 |     - |   155M |   0 |9999 |9909 |  10k| 284 | 23 |   6 |   0 | 1.965256e+04 | 1.839882e+05 | 836.20%| unknown
 25.0s|     1 |     2 |  5522 |     - |   157M |   0 |9999 |9912 |  10k| 284 | 25 |   9 |  41 | 1.968264e+04 | 1.839882e+05 | 834.77%| unknown
o 333s|    94 |    95 | 15703 | 159.7 |rootsold|  19 |9999 |  10k|  10k| 503 |  1 |  99 |1255 | 1.968296e+04 | 3.348471e+04 |  70.12%| unknown
  351s|   100 |   101 | 16079 | 153.8 |   186M |  19 |9999 |  10k|  10k| 503 |  1 | 102 |1341 | 1.968864e+04 | 3.348471e+04 |  70.07%| unknown
  515s|   200 |   201 | 26774 | 130.3 |   209M |  22 |9999 |  10k|  10k| 812 |  1 | 152 |1892 | 1.970897e+04 | 3.348471e+04 |  69.90%| unknown
L 561s|   294 |   295 | 36486 | 121.6 |    rins|  23 |9999 |  10k|  10k|1015 |  1 | 172 |2006 | 1.970897e+04 | 3.306353e+04 |  67.76%| unknown
 time | node  | left  |LP iter|LP it/n|mem/heur|mdpt |vars |cons |rows |cuts |sepa|confs|strbr|  dualbound   | primalbound  |  gap   | compl. 
  564s|   300 |   301 | 36836 | 120.4 |   220M |  23 |9999 |  10k|  10k|1040 |  1 | 172 |2014 | 1.970897e+04 | 3.306353e+04 |  67.76%| unknown
  596s|   400 |   401 | 46340 | 114.0 |   223M |  23 |9999 |  10k|  10k|1209 |  1 | 236 |2082 | 1.973585e+04 | 3.306353e+04 |  67.53%| unknown

SCIP Status        : solving was interrupted [time limit reached]
Solving Time (sec) : 600.00
Solving Nodes      : 412
Primal Bound       : +3.30635291188867e+04 (3 solutions)
Dual Bound         : +1.97358455251436e+04
Gap                : 67.53 %
Trying to solve problem with MTZ Solver Method...
Starting Solver, time limit setted to 10 minutes
Route:  [[0, 52], [1, 34], [2, 68], [3, 99], [4, 70], [5, 46], [6, 81], [7, 16], [8, 25], [9, 18], [10, 51], [11, 39], [12, 78], [13, 35], [14, 66], [15, 50], [16, 89], [17, 28], [18, 13], [19, 41], [20, 88], [21, 7], [22, 20], [23, 45], [24, 57], [25, 31], [26, 14], [27, 87], [28, 36], [29, 1], [30, 64], [31, 23], [32, 92], [33, 54], [34, 22], [35, 56], [36, 60], [37, 27], [38, 82], [39, 84], [40, 58], [41, 63], [42, 4], [43, 65], [44, 91], [45, 11], [46, 74], [47, 10], [48, 17], [49, 71], [50, 62], [51, 83], [52, 86], [53, 5], [54, 19], [55, 37], [56, 96], [57, 33], [58, 72], [59, 3], [60, 77], [61, 49], [62, 98], [63, 12], [64, 76], [65, 15], [66, 30], [67, 29], [68, 59], [69, 93], [70, 67], [71, 85], [72, 2], [73, 32], [74, 21], [75, 55], [76, 79], [77, 6], [78, 0], [79, 53], [80, 44], [81, 8], [82, 61], [83, 43], [84, 26], [85, 42], [86, 95], [87, 97], [88, 40], [89, 24], [90, 75], [91, 69], [92, 48], [93, 94], [94, 90], [95, 47], [96, 80], [97, 38], [98, 9], [99, 73]]
An Otimal Solution was found, yay!
Objective value: 33063.5
Problem solved in 47658 iterations
Problem solved in 412 nodes
Final Route Configuration succesfully created at:
data/routes/kroC100.csv
